Gamma centered Monkhorst Pack
0
Gamma
 {{num_kp}} {{num_kp}} {{num_kp}}   
 0  0  0

