bulk silicon, 8-atom cell               
   1.00000000000000     
     5.51000 0.0000000000000000    0.0000000000000000
     0.0000000000000000    5.51000 0.0000000000000000
     0.0000000000000000    0.0000000000000000    5.51000
 Si
 8 
Direct
0 0 0
0.25 0.25 0.25
0.5 0.5 0
0.5 0 0.5
0 0.5 0.5
0.25 0.75 0.75
0.75 0.25 0.75
0.75 0.75 0.25
